33D32945 STP File, STP Format Version 1.0

SECTION Comments
Name "edge_n15_d4_s42"
Problem "Euclidean Steiner Tree Problem"
Remark "Generated with STPGenerator. 4 dimensions."
END

SECTION Graph
Nodes 15
END

SECTION Coordinates
DDDD 0 0.0334699480 0.0334699480 0.0334699480 0.0334699480
DDDD 1 0.3299642076 0.3299642076 0.3299642076 0.3299642076
DDDD 2 0.6906357043 0.6906357043 0.6906357043 0.6906357043
DDDD 3 0.4224866822 0.4224866822 0.4224866822 0.4224866822
DDDD 4 0.2062651386 0.2062651386 0.2062651386 0.2062651386
DDDD 5 0.2501284509 0.2501284509 0.2501284509 0.2501284509
DDDD 6 0.6365585242 0.6365585242 0.6365585242 0.6365585242
DDDD 7 0.8636223808 0.8636223808 0.8636223808 0.8636223808
DDDD 8 0.3016556312 0.3016556312 0.3016556312 0.3016556312
DDDD 9 0.0249239351 0.0249239351 0.0249239351 0.0249239351
DDDD 10 0.3649927091 0.3649927091 0.3649927091 0.3649927091
DDDD 11 0.7653809822 0.7653809822 0.7653809822 0.7653809822
DDDD 12 0.3178602631 0.3178602631 0.3178602631 0.3178602631
DDDD 13 0.1357283928 0.1357283928 0.1357283928 0.1357283928
DDDD 14 0.1067452580 0.1067452580 0.1067452580 0.1067452580
END
